/*********************************************
 * OPL 12.6.0.0 Data
 * Author: Adrian Rodriguez Bazaga, Pau Rodriguez Esmerats
 * Creation Date: 06/12/2017 at 23:05:00
 *********************************************/

nNurses=308;
maxConsec=2;
maxPresence=7;
maxHours=5;
minHours=1;
hours=24;
demand= [49 45 65 74 45 65 74 51 46 32 7 9 10 13 12 7 9 6 5 4 35 83 50 55  ];
